NAME : eil76.out.tour 
COMMENT : Optimal tour for eil76.tsp (594.34)
TYPE : TOUR 
DIMENSION : 76
TOUR_SECTION
34
46
67
7
35
8
19
53
11
14
59
66
65
38
31
10
58
72
39
9
25
55
18
50
32
44
3
24
49
56
23
63
16
51
17
40
12
26
76
75
4
68
6
33
73
62
22
1
43
41
42
64
61
28
21
69
36
71
60
70
20
37
47
74
2
30
48
5
15
57
54
13
29
45
27
52
34
-1 
EOF 
